experiment/data/hgs-res/Vrp-Set-Golden-n281/Vrp-Set-Golden-n281-hgs/0.hgs1.vrp
NAME : 0
COMMENT : CVRP Instance
TYPE : CVRP
DIMENSION : 281
EDGE_WEIGHT_TYPE : EUC_2D
CAPACITY : 900
NODE_COORD_SECTION
1	0.0	0.0
2	30.0	0.0
3	29.2478	6.6756
4	27.0291	13.0165
5	23.4549	18.7047
6	18.7047	23.4549
7	13.0165	27.0291
8	6.6756	29.2478
9	0.0	30.0
10	-6.6756	29.2478
11	-13.0165	27.0291
12	-18.7047	23.4549
13	-23.4549	18.7047
14	-27.0291	13.0165
15	-29.2478	6.6756
16	-30.0	0.0
17	-29.2478	-6.6756
18	-27.0291	-13.0165
19	-23.4549	-18.7047
20	-18.7047	-23.4549
21	-13.0165	-27.0291
22	-6.6756	-29.2478
23	0.0	-30.0
24	6.6756	-29.2478
25	13.0165	-27.0291
26	18.7047	-23.4549
27	23.4549	-18.7047
28	27.0291	-13.0165
29	29.2478	-6.6756
30	60.0	0.0
31	58.4957	13.3513
32	54.0581	26.033
33	46.9099	37.4094
34	37.4094	46.9099
35	26.033	54.0581
36	13.3513	58.4957
37	0.0	60.0
38	-13.3513	58.4957
39	-26.033	54.0581
40	-37.4094	46.9099
41	-46.9099	37.4094
42	-54.0581	26.033
43	-58.4957	13.3513
44	-60.0	0.0
45	-58.4957	-13.3513
46	-54.0581	-26.033
47	-46.9099	-37.4094
48	-37.4094	-46.9099
49	-26.033	-54.0581
50	-13.3512	-58.4957
51	0.0	-60.0
52	13.3513	-58.4957
53	26.033	-54.0581
54	37.4094	-46.9099
55	46.9099	-37.4094
56	54.0581	-26.033
57	58.4957	-13.3512
58	90.0	0.0
59	87.7435	20.0269
60	81.0872	39.0495
61	70.3648	56.1141
62	56.1141	70.3648
63	39.0495	81.0872
64	20.0269	87.7435
65	0.0	90.0
66	-20.0269	87.7435
67	-39.0495	81.0872
68	-56.1141	70.3648
69	-70.3648	56.1141
70	-81.0872	39.0495
71	-87.7435	20.0269
72	-90.0	0.0
73	-87.7435	-20.0269
74	-81.0872	-39.0495
75	-70.3648	-56.1141
76	-56.1141	-70.3648
77	-39.0495	-81.0872
78	-20.0269	-87.7435
79	0.0	-90.0
80	20.0269	-87.7435
81	39.0495	-81.0872
82	56.1141	-70.3648
83	70.3648	-56.1141
84	81.0872	-39.0495
85	87.7435	-20.0269
86	120.0	0.0
87	116.9913	26.7025
88	108.1163	52.0661
89	93.8198	74.8188
90	74.8188	93.8198
91	52.066	108.1163
92	26.7025	116.9913
93	0.0	120.0
94	-26.7025	116.9913
95	-52.0661	108.1163
96	-74.8188	93.8198
97	-93.8198	74.8188
98	-108.1163	52.066
99	-116.9913	26.7025
100	-120.0	0.0
101	-116.9913	-26.7025
102	-108.1163	-52.0661
103	-93.8198	-74.8188
104	-74.8188	-93.8198
105	-52.066	-108.1163
106	-26.7025	-116.9914
107	0.0	-120.0
108	26.7025	-116.9913
109	52.0661	-108.1163
110	74.8188	-93.8198
111	93.8198	-74.8188
112	108.1163	-52.066
113	116.9914	-26.7025
114	150.0	0.0
115	146.2392	33.3781
116	135.14529	65.0826
117	117.2747	93.5235
118	93.5235	117.2747
119	65.0826	135.14529
120	33.3781	146.2392
121	0.0	150.0
122	-33.3781	146.2392
123	-65.0826	135.14529
124	-93.5235	117.2747
125	-117.2747	93.5235
126	-135.14529	65.0826
127	-146.2392	33.3781
128	-150.0	0.0
129	-146.2392	-33.3782
130	-135.14529	-65.0826
131	-117.2747	-93.5235
132	-93.5235	-117.2747
133	-65.0825	-135.14529
134	-33.3781	-146.2392
135	0.0	-150.0
136	33.3782	-146.2392
137	65.0826	-135.14529
138	93.5235	-117.2747
139	117.2747	-93.5235
140	135.14529	-65.0825
141	146.2392	-33.3781
142	180.0	0.0
143	175.487	40.0538
144	162.17439	78.0991
145	140.72971	112.2282
146	112.2282	140.72971
147	78.0991	162.17439
148	40.0538	175.487
149	0.0	180.0
150	-40.0538	175.487
151	-78.0991	162.17439
152	-112.2282	140.72971
153	-140.72971	112.2282
154	-162.17439	78.0991
155	-175.487	40.0538
156	-180.0	0.0
157	-175.487	-40.0538
158	-162.17439	-78.0991
159	-140.72971	-112.2282
160	-112.2281	-140.72971
161	-78.0991	-162.17439
162	-40.0537	-175.487
163	0.0	-180.0
164	40.0538	-175.487
165	78.0991	-162.17439
166	112.2282	-140.7296
167	140.72971	-112.2281
168	162.17439	-78.099
169	175.487	-40.0537
170	210.0	0.0
171	204.73489	46.7294
172	189.20351	91.1156
173	164.1846	130.93291
174	130.93291	164.1846
175	91.1156	189.20351
176	46.7294	204.73489
177	0.0	210.0
178	-46.7294	204.73489
179	-91.1156	189.20351
180	-130.93291	164.1846
181	-164.1846	130.9328
182	-189.20351	91.1156
183	-204.73489	46.7294
184	-210.0	0.0
185	-204.73489	-46.7294
186	-189.20351	-91.1156
187	-164.1846	-130.93291
188	-130.9328	-164.1846
189	-91.1156	-189.20351
190	-46.7294	-204.73489
191	0.0	-210.0
192	46.7294	-204.7348
193	91.1156	-189.2034
194	130.93291	-164.1846
195	164.1846	-130.9328
196	189.20351	-91.1156
197	204.73489	-46.7294
198	240.0	0.0
199	233.9827	53.405
200	216.2325	104.1321
201	187.6396	149.6376
202	149.6375	187.6396
203	104.1321	216.2325
204	53.405	233.9827
205	0.0	240.0
206	-53.405	233.9827
207	-104.1321	216.2325
208	-149.6376	187.6395
209	-187.6396	149.6375
210	-216.2325	104.1321
211	-233.9827	53.405
212	-240.0	0.0
213	-233.9827	-53.405
214	-216.2325	-104.1321
215	-187.6395	-149.6376
216	-149.6375	-187.6396
217	-104.1321	-216.2325
218	-53.405	-233.9827
219	0.0	-240.0
220	53.4051	-233.9827
221	104.1321	-216.2325
222	149.6376	-187.6395
223	187.6396	-149.6375
224	216.2325	-104.1321
225	233.9827	-53.405
226	270.0	0.0
227	263.2305	60.0807
228	243.2616	117.1486
229	211.0945	168.3423
230	168.34219	211.0945
231	117.1486	243.2616
232	60.0806	263.2305
233	0.0	270.0
234	-60.0807	263.2305
235	-117.1486	243.2616
236	-168.3423	211.0945
237	-211.0945	168.34219
238	-243.2616	117.1486
239	-263.2305	60.0806
240	-270.0	0.0
241	-263.2305	-60.0807
242	-243.2616	-117.1486
243	-211.0945	-168.3423
244	-168.34219	-211.0945
245	-117.1486	-243.2616
246	-60.0806	-263.2305
247	0.0	-270.0
248	60.0807	-263.2305
249	117.1486	-243.2616
250	168.3423	-211.0945
251	211.0945	-168.34219
252	243.2616	-117.1486
253	263.23059	-60.0806
254	300.0	0.0
255	292.47839	66.7563
256	270.29059	130.1651
257	234.54939	187.047
258	187.04691	234.5495
259	130.1651	270.29059
260	66.7563	292.47839
261	0.0	300.0
262	-66.7563	292.47839
263	-130.1651	270.29059
264	-187.047	234.54939
265	-234.5495	187.04691
266	-270.29071	130.1651
267	-292.47839	66.7563
268	-300.0	0.0
269	-292.47839	-66.7563
270	-270.29059	-130.1651
271	-234.54939	-187.047
272	-187.04691	-234.5495
273	-130.1651	-270.29071
274	-66.7562	-292.47839
275	0.0	-300.0
276	66.7563	-292.47839
277	130.16521	-270.29059
278	187.047	-234.54939
279	234.5495	-187.04691
280	270.29071	-130.1651
281	292.47839	-66.7562
DEMAND_SECTION
1	0
2	10
3	30
4	30
5	10
6	10
7	30
8	30
9	10
10	10
11	30
12	30
13	10
14	10
15	30
16	30
17	10
18	10
19	30
20	30
21	10
22	10
23	30
24	30
25	10
26	10
27	30
28	30
29	10
30	10
31	30
32	30
33	10
34	10
35	30
36	30
37	10
38	10
39	30
40	30
41	10
42	10
43	30
44	30
45	10
46	10
47	30
48	30
49	10
50	10
51	30
52	30
53	10
54	10
55	30
56	30
57	10
58	10
59	30
60	30
61	10
62	10
63	30
64	30
65	10
66	10
67	30
68	30
69	10
70	10
71	30
72	30
73	10
74	10
75	30
76	30
77	10
78	10
79	30
80	30
81	10
82	10
83	30
84	30
85	10
86	10
87	30
88	30
89	10
90	10
91	30
92	30
93	10
94	10
95	30
96	30
97	10
98	10
99	30
100	30
101	10
102	10
103	30
104	30
105	10
106	10
107	30
108	30
109	10
110	10
111	30
112	30
113	10
114	10
115	30
116	30
117	10
118	10
119	30
120	30
121	10
122	10
123	30
124	30
125	10
126	10
127	30
128	30
129	10
130	10
131	30
132	30
133	10
134	10
135	30
136	30
137	10
138	10
139	30
140	30
141	10
142	10
143	30
144	30
145	10
146	10
147	30
148	30
149	10
150	10
151	30
152	30
153	10
154	10
155	30
156	30
157	10
158	10
159	30
160	30
161	10
162	10
163	30
164	30
165	10
166	10
167	30
168	30
169	10
170	10
171	30
172	30
173	10
174	10
175	30
176	30
177	10
178	10
179	30
180	30
181	10
182	10
183	30
184	30
185	10
186	10
187	30
188	30
189	10
190	10
191	30
192	30
193	10
194	10
195	30
196	30
197	10
198	10
199	30
200	30
201	10
202	10
203	30
204	30
205	10
206	10
207	30
208	30
209	10
210	10
211	30
212	30
213	10
214	10
215	30
216	30
217	10
218	10
219	30
220	30
221	10
222	10
223	30
224	30
225	10
226	10
227	30
228	30
229	10
230	10
231	30
232	30
233	10
234	10
235	30
236	30
237	10
238	10
239	30
240	30
241	10
242	10
243	30
244	30
245	10
246	10
247	30
248	30
249	10
250	10
251	30
252	30
253	10
254	10
255	30
256	30
257	10
258	10
259	30
260	30
261	10
262	10
263	30
264	30
265	10
266	10
267	30
268	30
269	10
270	10
271	30
272	30
273	10
274	10
275	30
276	30
277	10
278	10
279	30
280	30
281	10
DEPOT_SECTION
1
-1
EOF
