experiment/data/hgs-res/Vrp-Set-Golden-n281/Vrp-Set-Golden-n281-hgs/0.hgs1.tour
Route #1: 13 14 15 16 17 18 19 20 21 22 23
Route #2: 43 44 45 46 47 75 74 73 101 129 157 185 213 241 269 270 242 214 186 158 130 102 103 131 159 187 215 243 271 272 244 216 188 160 132 104 76 77 78 79 51 50 49 48
Route #3: 25 53 81 109 110 138 166 194 222 250 278 277 249 221 193 165 137 136 164 192 220 248 276 275 247 219 191 163 135 134 162 190 218 246 274 273 245 217 189 161 133 105 106 107 108 80 52 24
Route #4: 28 1 2 30 29 56 84 57 58 86 114 142 170 198 226 254 253 225 197 169 141 113 85 112 140 168 196 224 252 280 279 251 223 195 167 139 111 83 82 54 55 27 26
Route #5: 7 6 34 35 63 62 90 118 146 174 202 230 258 257 229 201 173 145 117 89 88 116 144 172 200 228 256 255 227 199 171 143 115 87 59 60 61 33 32 31 3 4 5
Route #6: 8 36 64 92 91 119 147 175 203 231 259 260 232 204 176 148 120 121 149 177 205 233 261 262 234 206 178 150 122 123 151 179 207 235 263 264 236 208 180 152 124 96 95 94 93 65 37 9
Route #7: 10 38 66 67 68 69 97 125 153 181 209 237 265 266 238 210 182 154 126 98 99 127 155 183 211 239 267 268 240 212 184 156 128 100 72 71 70 42 41 40 39 11 12
Cost 8348.95
